;symbolic execution tree
(push)
(assert (le x0 java.lang.Object))
(check-sat)
(push)
(assert (le x1 java.lang.Object))
(check-sat)
(push)
(assert (le x2 java.lang.Object))
(check-sat)
(push)
(assert (le x3 java.lang.Object))
(check-sat)
(push)
(assert (le x4 java.lang.Object))
(check-sat)
(push)
(assert (le x5 java.lang.Object))
(check-sat)
(push)
(assert (le x6 java.lang.Object))
(check-sat)
(push)
(assert (le x7 java.lang.Object))
(check-sat)
(push)
(assert (le x8 java.lang.Object))
(check-sat)
(push)
(assert (le x9 java.lang.Object))
(check-sat)
(push)
(assert (le x10 java.lang.Object))
(check-sat)
(push)
(assert (le x11 java.lang.Object))
(check-sat)
(push)
(assert (le x12 java.lang.Object))
(check-sat)
(push)
(assert (le x13 java.lang.Object))
(check-sat)
(push)
(assert (le x14 java.lang.Object))
(check-sat)
(push)
(assert (le x15 java.lang.Object))
(check-sat)
(push)
(assert (= x12 java.lang.StringBuffer))
(check-sat)
(push)
(assert (= x14 java.lang.String))
(check-sat)
(push)
(assert (= x12 java.lang.StringBuffer))
(check-sat)
(pop)
(push)
(assert (not (= x12 java.lang.StringBuffer)))
(check-sat)
(pop)
(push)
(assert (= x0 java.lang.Integer))
(check-sat)
(pop)
(push)
(assert (not (= x0 java.lang.Integer)))
(check-sat)
(pop)
(push)
(assert (= x4 java.lang.String))
(check-sat)
(pop)
(push)
(assert (not (= x4 java.lang.String)))
(check-sat)
(push)
(assert (le x8 com.lowagie.text.pdf.ByteBuffer))
(check-sat)
(pop)
(push)
(assert (not (le x8 com.lowagie.text.pdf.ByteBuffer)))
(check-sat)
(push)
(assert (= x2 java.lang.String))
(check-sat)
(pop)
(push)
(assert (not (= x2 java.lang.String)))
(check-sat)
(pop)
(pop)
(pop)
(pop)
(push)
(assert (not (= x14 java.lang.String)))
(check-sat)
(push)
(assert (= x14 java.lang.String))
(check-sat)
(pop)
(push)
(assert (not (= x14 java.lang.String)))
(check-sat)
(pop)
(push)
(assert (= x4 java.lang.String))
(check-sat)
(pop)
(push)
(assert (not (= x4 java.lang.String)))
(check-sat)
(pop)
(pop)
(push)
(assert (= x11 java.lang.StringBuffer))
(check-sat)
(push)
(assert (le x13 com.lowagie.text.pdf.PdfObject))
(check-sat)
(pop)
(push)
(assert (not (le x13 com.lowagie.text.pdf.PdfObject)))
(check-sat)
(push)
(assert (= x12 java.lang.StringBuffer))
(check-sat)
(pop)
(push)
(assert (not (= x12 java.lang.StringBuffer)))
(check-sat)
(pop)
(pop)
(push)
(assert (= x7 java.lang.String))
(check-sat)
(pop)
(push)
(assert (not (= x7 java.lang.String)))
(check-sat)
(push)
(assert (= x15 java.lang.String))
(check-sat)
(push)
(assert (= x13 java.lang.StringBuffer))
(check-sat)
(pop)
(push)
(assert (not (= x13 java.lang.StringBuffer)))
(check-sat)
(pop)
(pop)
(push)
(assert (not (= x15 java.lang.String)))
(check-sat)
(pop)
(pop)
(push)
(assert (= x2 java.lang.StringBuffer))
(check-sat)
(push)
(assert (= x15 java.lang.StringBuffer))
(check-sat)
(pop)
(push)
(assert (not (= x15 java.lang.StringBuffer)))
(check-sat)
(push)
(assert (= x7 java.lang.StringBuffer))
(check-sat)
(pop)
(push)
(assert (not (= x7 java.lang.StringBuffer)))
(check-sat)
(pop)
(pop)
(push)
(assert (= x14 java.lang.Integer))
(check-sat)
(pop)
(push)
(assert (not (= x14 java.lang.Integer)))
(check-sat)
(pop)
(push)
(assert (= x11 java.lang.StringBuffer))
(check-sat)
(pop)
(push)
(assert (not (= x11 java.lang.StringBuffer)))
(check-sat)
(pop)
(pop)
(push)
(assert (not (= x2 java.lang.StringBuffer)))
(check-sat)
(push)
(assert (= x8 java.lang.StringBuffer))
(check-sat)
(pop)
(push)
(assert (not (= x8 java.lang.StringBuffer)))
(check-sat)
(pop)
(pop)
(push)
(assert (= x11 java.lang.StringBuffer))
(check-sat)
(push)
(assert (not (le x1 com.lowagie.text.pdf.PdfObject)))
(check-sat)
(pop)
(push)
(assert (le x1 com.lowagie.text.pdf.PdfObject))
(check-sat)
(pop)
(push)
(assert (le x5 com.lowagie.text.pdf.PdfObject))
(check-sat)
(pop)
(push)
(assert (not (le x5 com.lowagie.text.pdf.PdfObject)))
(check-sat)
(pop)
(push)
(assert (= x14 java.lang.StringBuffer))
(check-sat)
(pop)
(push)
(assert (not (= x14 java.lang.StringBuffer)))
(check-sat)
(pop)
(pop)
(push)
(assert (not (= x11 java.lang.StringBuffer)))
(check-sat)
(pop)
(pop)
(push)
(assert (not (= x11 java.lang.StringBuffer)))
(check-sat)
(pop)
(push)
(assert (= x15 java.lang.StringBuffer))
(check-sat)
(pop)
(push)
(assert (not (= x15 java.lang.StringBuffer)))
(check-sat)
(push)
(assert (= x3 java.lang.StringBuffer))
(check-sat)
(pop)
(push)
(assert (not (= x3 java.lang.StringBuffer)))
(check-sat)
(pop)
(pop)
(push)
(assert (le x5 com.lowagie.text.pdf.PdfObject))
(check-sat)
(push)
(assert (= x3 java.lang.StringBuffer))
(check-sat)
(pop)
(push)
(assert (not (= x3 java.lang.StringBuffer)))
(check-sat)
(pop)
(push)
(assert (le x11 com.lowagie.text.pdf.PdfObject))
(check-sat)
(push)
(assert (= x3 java.lang.String))
(check-sat)
(pop)
(push)
(assert (not (= x3 java.lang.String)))
(check-sat)
(pop)
(pop)
(push)
(assert (not (le x11 com.lowagie.text.pdf.PdfObject)))
(check-sat)
(push)
(assert (= x1 java.lang.StringBuffer))
(check-sat)
(pop)
(push)
(assert (not (= x1 java.lang.StringBuffer)))
(check-sat)
(push)
(assert (= x4 java.lang.StringBuffer))
(check-sat)
(pop)
(push)
(assert (not (= x4 java.lang.StringBuffer)))
(check-sat)
(pop)
(push)
(assert (le x15 com.lowagie.text.pdf.PdfName))
(check-sat)
(pop)
(push)
(assert (not (le x15 com.lowagie.text.pdf.PdfName)))
(check-sat)
(pop)
(push)
(assert (le x11 com.lowagie.text.pdf.PdfObject))
(check-sat)
(pop)
(push)
(assert (not (le x11 com.lowagie.text.pdf.PdfObject)))
(check-sat)
(pop)
(pop)
(push)
(assert (le x1 com.lowagie.text.pdf.ByteBuffer))
(check-sat)
(pop)
(push)
(assert (not (le x1 com.lowagie.text.pdf.ByteBuffer)))
(check-sat)
(pop)
(push)
(assert (= x1 java.lang.StringBuffer))
(check-sat)
(pop)
(push)
(assert (not (= x1 java.lang.StringBuffer)))
(check-sat)
(pop)
(push)
(assert (= x1 java.lang.StringBuffer))
(check-sat)
(pop)
(push)
(assert (not (= x1 java.lang.StringBuffer)))
(check-sat)
(pop)
(pop)
(pop)
(push)
(assert (not (le x5 com.lowagie.text.pdf.PdfObject)))
(check-sat)
(push)
(assert (= x15 java.lang.String))
(check-sat)
(push)
(assert (= x15 java.lang.String))
(check-sat)
(pop)
(push)
(assert (not (= x15 java.lang.String)))
(check-sat)
(pop)
(push)
(assert (le x11 com.lowagie.text.pdf.ByteBuffer))
(check-sat)
(pop)
(push)
(assert (not (le x11 com.lowagie.text.pdf.ByteBuffer)))
(check-sat)
(pop)
(pop)
(push)
(assert (not (= x15 java.lang.String)))
(check-sat)
(pop)
(pop)
(pop)
(push)
(assert (not (= x12 java.lang.StringBuffer)))
(check-sat)
(push)
(assert (= x1 java.lang.StringBuffer))
(check-sat)
(pop)
(push)
(assert (not (= x1 java.lang.StringBuffer)))
(check-sat)
(push)
(assert (le x11 com.lowagie.text.pdf.ByteBuffer))
(check-sat)
(pop)
(push)
(assert (not (le x11 com.lowagie.text.pdf.ByteBuffer)))
(check-sat)
(push)
(assert (le x11 com.lowagie.text.pdf.ByteBuffer))
(check-sat)
(pop)
(push)
(assert (not (le x11 com.lowagie.text.pdf.ByteBuffer)))
(check-sat)
(pop)
(pop)
(push)
(assert (le x9 com.lowagie.text.pdf.PdfObject))
(check-sat)
(pop)
(push)
(assert (not (le x9 com.lowagie.text.pdf.PdfObject)))
(check-sat)
(pop)
(pop)
(push)
(assert (le x1 com.lowagie.text.pdf.PdfName))
(check-sat)
(pop)
(push)
(assert (not (le x1 com.lowagie.text.pdf.PdfName)))
(check-sat)
(push)
(assert (= x7 java.lang.reflect.Field))
(check-sat)
(push)
(assert (= x10 java.lang.StringBuffer))
(check-sat)
(pop)
(push)
(assert (not (= x10 java.lang.StringBuffer)))
(check-sat)
(pop)
(push)
(assert (not (le x4 java.util.ArrayList)))
(check-sat)
(pop)
(push)
(assert (le x4 java.util.ArrayList))
(check-sat)
(push)
(assert (= x15 java.lang.String))
(check-sat)
(pop)
(push)
(assert (not (= x15 java.lang.String)))
(check-sat)
(pop)
(push)
(assert (le x2 java.util.HashMap))
(check-sat)
(pop)
(push)
(assert (not (le x2 java.util.HashMap)))
(check-sat)
(pop)
(push)
(assert (= x11 java.lang.StringBuffer))
(check-sat)
(pop)
(push)
(assert (not (= x11 java.lang.StringBuffer)))
(check-sat)
(pop)
(pop)
(push)
(assert (= x10 java.lang.StringBuffer))
(check-sat)
(pop)
(push)
(assert (not (= x10 java.lang.StringBuffer)))
(check-sat)
(push)
(assert (le x11 com.lowagie.text.pdf.ByteBuffer))
(check-sat)
(pop)
(push)
(assert (not (le x11 com.lowagie.text.pdf.ByteBuffer)))
(check-sat)
(pop)
(pop)
(push)
(assert (le x3 com.lowagie.text.pdf.ByteBuffer))
(check-sat)
(pop)
(push)
(assert (not (le x3 com.lowagie.text.pdf.ByteBuffer)))
(check-sat)
(pop)
(pop)
(push)
(assert (not (= x7 java.lang.reflect.Field)))
(check-sat)
(pop)
(push)
(assert (= x3 java.lang.StringBuffer))
(check-sat)
(pop)
(push)
(assert (not (= x3 java.lang.StringBuffer)))
(check-sat)
(pop)
(push)
(assert (le x15 com.lowagie.text.pdf.ByteBuffer))
(check-sat)
(pop)
(push)
(assert (not (le x15 com.lowagie.text.pdf.ByteBuffer)))
(check-sat)
(pop)
(push)
(assert (= x0 java.lang.String))
(check-sat)
(push)
(assert (= x9 java.lang.String))
(check-sat)
(pop)
(push)
(assert (not (= x9 java.lang.String)))
(check-sat)
(push)
(assert (le x11 org.dom4j.Node))
(check-sat)
(pop)
(push)
(assert (not (le x11 org.dom4j.Node)))
(check-sat)
(pop)
(pop)
(pop)
(push)
(assert (not (= x0 java.lang.String)))
(check-sat)
(pop)
(push)
(assert (= x6 java.lang.StringBuffer))
(check-sat)
(push)
(assert (= x10 java.lang.String))
(check-sat)
(pop)
(push)
(assert (not (= x10 java.lang.String)))
(check-sat)
(push)
(assert (le x3 com.lowagie.text.pdf.PdfObject))
(check-sat)
(pop)
(push)
(assert (not (le x3 com.lowagie.text.pdf.PdfObject)))
(check-sat)
(pop)
(pop)
(pop)
(push)
(assert (not (= x6 java.lang.StringBuffer)))
(check-sat)
(pop)
(pop)
(push)
(assert (= x3 java.lang.StringBuffer))
(check-sat)
(push)
(assert (le x14 com.lowagie.text.pdf.PdfName))
(check-sat)
(push)
(assert (le x2 com.lowagie.text.pdf.ByteBuffer))
(check-sat)
(pop)
(push)
(assert (not (le x2 com.lowagie.text.pdf.ByteBuffer)))
(check-sat)
(push)
(assert (= x15 java.lang.StringBuffer))
(check-sat)
(pop)
(push)
(assert (not (= x15 java.lang.StringBuffer)))
(check-sat)
(pop)
(pop)
(push)
(assert (le x8 com.lowagie.text.pdf.ByteBuffer))
(check-sat)
(pop)
(push)
(assert (not (le x8 com.lowagie.text.pdf.ByteBuffer)))
(check-sat)
(pop)
(pop)
(push)
(assert (not (le x14 com.lowagie.text.pdf.PdfName)))
(check-sat)
(pop)
(pop)
(push)
(assert (not (= x3 java.lang.StringBuffer)))
(check-sat)
(pop)
(push)
(assert (= x15 java.lang.String))
(check-sat)
(push)
(assert (= x0 java.lang.StringBuffer))
(check-sat)
(pop)
(push)
(assert (not (= x0 java.lang.StringBuffer)))
(check-sat)
(push)
(assert (= x7 java.lang.String))
(check-sat)
(push)
(assert (le x3 java.util.HashMap))
(check-sat)
(pop)
(push)
(assert (not (le x3 java.util.HashMap)))
(check-sat)
(pop)
(pop)
(push)
(assert (not (= x7 java.lang.String)))
(check-sat)
(pop)
(push)
(assert (= x0 java.lang.StringBuffer))
(check-sat)
(pop)
(push)
(assert (not (= x0 java.lang.StringBuffer)))
(check-sat)
(pop)
(pop)
(pop)
(push)
(assert (not (= x15 java.lang.String)))
(check-sat)
(push)
(assert (= x4 java.lang.String))
(check-sat)
(push)
(assert (= x0 java.lang.String))
(check-sat)
(pop)
(push)
(assert (not (= x0 java.lang.String)))
(check-sat)
(pop)
(push)
(assert (= x1 java.lang.StringBuffer))
(check-sat)
(pop)
(push)
(assert (not (= x1 java.lang.StringBuffer)))
(check-sat)
(pop)
(push)
(assert (le x2 com.lowagie.text.pdf.PdfObject))
(check-sat)
(pop)
(push)
(assert (not (le x2 com.lowagie.text.pdf.PdfObject)))
(check-sat)
(pop)
(pop)
(push)
(assert (not (= x4 java.lang.String)))
(check-sat)
(pop)
(pop)
(push)
(assert (= x10 java.lang.StringBuffer))
(check-sat)
(push)
(assert (= x13 java.lang.StringBuffer))
(check-sat)
(pop)
(push)
(assert (not (= x13 java.lang.StringBuffer)))
(check-sat)
(pop)
(push)
(assert (= x2 java.lang.StringBuffer))
(check-sat)
(pop)
(push)
(assert (not (= x2 java.lang.StringBuffer)))
(check-sat)
(pop)
(pop)
(push)
(assert (not (= x10 java.lang.StringBuffer)))
(check-sat)
(pop)
(pop)
